words_hard_train/9758.qaiger
aag 36 16 0 1 20
2
4
8
10
16
20
22
26
32
42
44
48
50
56
58
62
73
6 2 4
12 8 10
14 7 13
18 14 16
24 21 23
28 25 26
30 20 22
34 31 33
36 28 35
38 18 37
40 31 27
46 42 44
52 48 50
54 47 53
60 56 58
64 62 21
66 61 65
68 54 66
70 41 68
72 38 70
i0 2 y2[7]
i1 1 x1[7]
i2 2 y2[3]
i3 1 x1[3]
i4 2 y2[2]
i5 1 x1[0]
i6 1 x1[1]
i7 1 x1[2]
i8 2 y2[1]
i9 2 y2[5]
i10 1 x1[5]
i11 2 y2[6]
i12 1 x1[6]
i13 2 y2[4]
i14 1 x1[4]
i15 2 y2[0]
o0 bool[0]
c
simplified
  !=
    and
      add
        1
        1 x1
      2 y2
    << 2
      1
