words_hard_train/9758.qaiger.qdimacs
p cnf 36 61
a 2 5 10 11 13 22 25 29 0
e 1 3 4 6 7 8 9 12 14 15 16 17 18 19 20 21 23 24 26 27 28 30 31 32 33 34 35 36 0
-1 -2 3 0
1 -3 0
2 -3 0
-4 -5 6 0
4 -6 0
5 -6 0
3 6 7 0
-3 -7 0
-6 -7 0
-7 -8 9 0
7 -9 0
8 -9 0
10 11 12 0
-10 -12 0
-11 -12 0
12 -13 14 0
-12 -14 0
13 -14 0
-10 -11 15 0
10 -15 0
11 -15 0
15 16 17 0
-15 -17 0
-16 -17 0
-14 17 18 0
14 -18 0
-17 -18 0
-9 18 19 0
9 -19 0
-18 -19 0
15 13 20 0
-15 -20 0
-13 -20 0
-21 -22 23 0
21 -23 0
22 -23 0
-24 -25 26 0
24 -26 0
25 -26 0
23 26 27 0
-23 -27 0
-26 -27 0
-28 -29 30 0
28 -30 0
29 -30 0
-31 10 32 0
31 -32 0
-10 -32 0
30 32 33 0
-30 -33 0
-32 -33 0
-27 -33 34 0
27 -34 0
33 -34 0
20 -34 35 0
-20 -35 0
34 -35 0
-19 -35 36 0
19 -36 0
35 -36 0
-36 0
